
Presolve eliminates 4797994 constraints and 4791458 variables.
Adjusted problem:
2082742 variables:
	2071342 binary variables
	11400 linear variables
2099646 constraints, all linear; 16500056 nonzeros
	23402 equality constraints
	2076244 inequality constraints
1 linear objective; 2059942 nonzeros.

Gurobi 9.1.2: mipgap 0.01
outlev 1
timelim 3600
Gurobi Optimizer version 9.1.2 build v9.1.2rc0 (linux64)
Thread count: 4 physical cores, 4 logical processors, using up to 4 threads
Optimize a model with 2099646 rows, 2082742 columns and 16500056 nonzeros
Model fingerprint: 0xb4a364a2
Variable types: 11400 continuous, 2071342 integer (2071342 binary)
Coefficient statistics:
  Matrix range     [6e-02, 2e+02]
  Objective range  [4e+01, 7e+03]
  Bounds range     [1e+00, 2e+02]
  RHS range        [1e+00, 2e+02]
Presolve removed 0 rows and 0 columns (presolve time = 6s) ...
Presolve removed 0 rows and 0 columns (presolve time = 24s) ...
Presolve removed 0 rows and 0 columns (presolve time = 25s) ...
Presolve removed 0 rows and 0 columns (presolve time = 34s) ...
Presolve removed 0 rows and 0 columns (presolve time = 35s) ...
Presolve removed 0 rows and 0 columns (presolve time = 40s) ...
Presolve removed 0 rows and 0 columns (presolve time = 45s) ...
Presolve removed 0 rows and 0 columns (presolve time = 50s) ...
Presolve removed 0 rows and 0 columns (presolve time = 55s) ...
Presolve removed 0 rows and 0 columns (presolve time = 60s) ...
Presolve removed 22800 rows and 0 columns (presolve time = 65s) ...
Presolve removed 22800 rows and 0 columns (presolve time = 87s) ...
Presolve removed 22800 rows and 0 columns (presolve time = 101s) ...
Presolve removed 22800 rows and 0 columns (presolve time = 145s) ...
Presolve removed 22800 rows and 0 columns (presolve time = 178s) ...
Presolve removed 22800 rows and 0 columns
Presolve time: 178.48s
Presolved: 2076846 rows, 2082742 columns, 10341434 nonzeros
Variable types: 11400 continuous, 2071342 integer (2071342 binary)

Deterministic concurrent LP optimizer: primal simplex, dual simplex, and barrier
Showing barrier log only...

Root barrier log...

Elapsed ordering time = 15s
Elapsed ordering time = 15s
Elapsed ordering time = 20s
Elapsed ordering time = 25s
Elapsed ordering time = 30s
Elapsed ordering time = 35s
Elapsed ordering time = 40s
Elapsed ordering time = 45s
Elapsed ordering time = 50s
Elapsed ordering time = 55s
Elapsed ordering time = 60s
Elapsed ordering time = 65s
Elapsed ordering time = 70s
Elapsed ordering time = 75s
Elapsed ordering time = 80s
Elapsed ordering time = 85s
Elapsed ordering time = 90s
Elapsed ordering time = 95s
Elapsed ordering time = 100s
Elapsed ordering time = 105s
Elapsed ordering time = 110s
Elapsed ordering time = 115s
Elapsed ordering time = 120s
Elapsed ordering time = 125s
Elapsed ordering time = 130s
Elapsed ordering time = 135s
Elapsed ordering time = 140s
Elapsed ordering time = 145s
Elapsed ordering time = 150s
Elapsed ordering time = 155s
Elapsed ordering time = 160s
Elapsed ordering time = 165s
Elapsed ordering time = 170s
Elapsed ordering time = 175s
Elapsed ordering time = 180s
Elapsed ordering time = 185s
Elapsed ordering time = 190s
Elapsed ordering time = 195s
Elapsed ordering time = 200s
Elapsed ordering time = 205s
Elapsed ordering time = 210s
Elapsed ordering time = 215s
Elapsed ordering time = 220s
Elapsed ordering time = 225s
Elapsed ordering time = 230s
Elapsed ordering time = 235s
Elapsed ordering time = 240s
Elapsed ordering time = 245s
Elapsed ordering time = 250s
Elapsed ordering time = 255s
Elapsed ordering time = 260s
Elapsed ordering time = 265s
Elapsed ordering time = 270s
Elapsed ordering time = 275s
Elapsed ordering time = 280s
Elapsed ordering time = 285s
Elapsed ordering time = 290s
Elapsed ordering time = 295s
Elapsed ordering time = 300s
Elapsed ordering time = 305s
Elapsed ordering time = 310s
Elapsed ordering time = 315s
Elapsed ordering time = 320s
Elapsed ordering time = 325s
Elapsed ordering time = 330s
Elapsed ordering time = 335s
Elapsed ordering time = 340s
Elapsed ordering time = 345s
Elapsed ordering time = 350s
Elapsed ordering time = 355s
Elapsed ordering time = 360s
Elapsed ordering time = 365s
Elapsed ordering time = 370s
Elapsed ordering time = 375s
Elapsed ordering time = 380s
Elapsed ordering time = 385s
Elapsed ordering time = 390s
Elapsed ordering time = 395s
Elapsed ordering time = 400s
Elapsed ordering time = 405s
Elapsed ordering time = 410s
Elapsed ordering time = 415s
Elapsed ordering time = 420s
Elapsed ordering time = 425s
Elapsed ordering time = 430s
Elapsed ordering time = 435s
Elapsed ordering time = 440s
Elapsed ordering time = 445s
Elapsed ordering time = 450s
Elapsed ordering time = 455s
Elapsed ordering time = 460s
Elapsed ordering time = 465s
Elapsed ordering time = 470s
Elapsed ordering time = 475s
Elapsed ordering time = 480s
Elapsed ordering time = 485s
Elapsed ordering time = 490s
Elapsed ordering time = 495s
Elapsed ordering time = 500s
Elapsed ordering time = 505s
Elapsed ordering time = 510s
Elapsed ordering time = 515s
Elapsed ordering time = 520s
Elapsed ordering time = 525s
Elapsed ordering time = 530s
Elapsed ordering time = 535s
Elapsed ordering time = 540s
Elapsed ordering time = 545s
Elapsed ordering time = 550s
Elapsed ordering time = 555s
Elapsed ordering time = 560s
Elapsed ordering time = 565s
Elapsed ordering time = 570s
Elapsed ordering time = 575s
Elapsed ordering time = 580s
Elapsed ordering time = 585s
Elapsed ordering time = 590s
Elapsed ordering time = 595s
Elapsed ordering time = 600s
Elapsed ordering time = 605s
Elapsed ordering time = 610s
Elapsed ordering time = 615s
Elapsed ordering time = 620s
Elapsed ordering time = 625s
Elapsed ordering time = 630s
Elapsed ordering time = 635s
Elapsed ordering time = 640s
Elapsed ordering time = 645s
Elapsed ordering time = 650s
Elapsed ordering time = 655s
Elapsed ordering time = 660s
Elapsed ordering time = 665s
Elapsed ordering time = 670s
Elapsed ordering time = 675s
Elapsed ordering time = 680s
Elapsed ordering time = 685s
Elapsed ordering time = 690s
Elapsed ordering time = 695s
Elapsed ordering time = 700s
Elapsed ordering time = 705s
Elapsed ordering time = 710s
Elapsed ordering time = 715s
Elapsed ordering time = 720s
Elapsed ordering time = 725s
Elapsed ordering time = 730s
Elapsed ordering time = 735s
Elapsed ordering time = 740s
Elapsed ordering time = 745s
Elapsed ordering time = 750s
Elapsed ordering time = 755s
Elapsed ordering time = 760s
Elapsed ordering time = 765s
Elapsed ordering time = 770s
Elapsed ordering time = 775s
Elapsed ordering time = 780s
Elapsed ordering time = 785s
Elapsed ordering time = 790s
Elapsed ordering time = 795s
Elapsed ordering time = 800s
Elapsed ordering time = 805s
Elapsed ordering time = 810s
Elapsed ordering time = 815s
Elapsed ordering time = 820s
Elapsed ordering time = 825s
Elapsed ordering time = 830s
Elapsed ordering time = 835s
Elapsed ordering time = 840s
Elapsed ordering time = 845s
Elapsed ordering time = 850s
Elapsed ordering time = 855s
Elapsed ordering time = 860s
Elapsed ordering time = 865s
Elapsed ordering time = 870s
Elapsed ordering time = 875s
Elapsed ordering time = 880s
Elapsed ordering time = 885s
Elapsed ordering time = 890s
Elapsed ordering time = 895s
Elapsed ordering time = 900s
Elapsed ordering time = 905s
Elapsed ordering time = 910s
Elapsed ordering time = 915s
Elapsed ordering time = 920s
Elapsed ordering time = 925s
Elapsed ordering time = 930s
Elapsed ordering time = 935s
Elapsed ordering time = 940s
Elapsed ordering time = 945s
Elapsed ordering time = 950s
Elapsed ordering time = 955s
Elapsed ordering time = 960s
Elapsed ordering time = 965s
Elapsed ordering time = 970s
Elapsed ordering time = 975s
Elapsed ordering time = 980s
Elapsed ordering time = 985s
Elapsed ordering time = 990s
Elapsed ordering time = 995s
Elapsed ordering time = 1000s
Elapsed ordering time = 1005s
Elapsed ordering time = 1010s
Elapsed ordering time = 1015s
Elapsed ordering time = 1020s
Elapsed ordering time = 1025s
Elapsed ordering time = 1030s
Elapsed ordering time = 1035s
Elapsed ordering time = 1040s
Elapsed ordering time = 1045s
Elapsed ordering time = 1050s
Elapsed ordering time = 1055s
Elapsed ordering time = 1060s
Elapsed ordering time = 1065s
Elapsed ordering time = 1070s
Elapsed ordering time = 1075s
Elapsed ordering time = 1080s
Elapsed ordering time = 1085s
Elapsed ordering time = 1090s
Elapsed ordering time = 1095s
Elapsed ordering time = 1100s
Elapsed ordering time = 1105s
Elapsed ordering time = 1110s
Elapsed ordering time = 1115s
Elapsed ordering time = 1120s
Elapsed ordering time = 1125s
Elapsed ordering time = 1130s
Elapsed ordering time = 1135s
Elapsed ordering time = 1140s
Elapsed ordering time = 1145s
Elapsed ordering time = 1150s
Elapsed ordering time = 1155s
Elapsed ordering time = 1160s
Elapsed ordering time = 1165s
Elapsed ordering time = 1170s
Elapsed ordering time = 1175s
Elapsed ordering time = 1180s
Elapsed ordering time = 1185s
Elapsed ordering time = 1190s
Elapsed ordering time = 1195s
Elapsed ordering time = 1200s
Elapsed ordering time = 1205s
Elapsed ordering time = 1210s
Elapsed ordering time = 1215s
Elapsed ordering time = 1220s
Elapsed ordering time = 1225s
Elapsed ordering time = 1230s
Elapsed ordering time = 1235s
Elapsed ordering time = 1240s
Elapsed ordering time = 1245s
Elapsed ordering time = 1250s
Elapsed ordering time = 1255s
Elapsed ordering time = 1260s
Elapsed ordering time = 1265s
Elapsed ordering time = 1270s
Elapsed ordering time = 1275s
Elapsed ordering time = 1280s
Elapsed ordering time = 1285s
Elapsed ordering time = 1290s
Elapsed ordering time = 1295s
Elapsed ordering time = 1300s
Elapsed ordering time = 1305s
Elapsed ordering time = 1310s
Elapsed ordering time = 1315s
Elapsed ordering time = 1320s
Elapsed ordering time = 1325s
Elapsed ordering time = 1330s
Elapsed ordering time = 1335s
Elapsed ordering time = 1340s
Elapsed ordering time = 1345s
Elapsed ordering time = 1350s
Elapsed ordering time = 1355s
Elapsed ordering time = 1360s
Elapsed ordering time = 1365s
Elapsed ordering time = 1370s
Elapsed ordering time = 1375s
Elapsed ordering time = 1380s
Elapsed ordering time = 1385s
Elapsed ordering time = 1390s
Elapsed ordering time = 1395s
Elapsed ordering time = 1400s
Elapsed ordering time = 1405s
Elapsed ordering time = 1410s
Elapsed ordering time = 1415s
Elapsed ordering time = 1420s
Elapsed ordering time = 1425s
Elapsed ordering time = 1430s
Elapsed ordering time = 1435s
Elapsed ordering time = 1440s
Elapsed ordering time = 1445s
Elapsed ordering time = 1450s
Elapsed ordering time = 1455s
Elapsed ordering time = 1460s
Elapsed ordering time = 1465s
Elapsed ordering time = 1470s
Elapsed ordering time = 1475s
Elapsed ordering time = 1480s
Elapsed ordering time = 1485s
Elapsed ordering time = 1490s
Elapsed ordering time = 1495s
Elapsed ordering time = 1500s
Elapsed ordering time = 1505s
Elapsed ordering time = 1510s
Elapsed ordering time = 1515s
Elapsed ordering time = 1520s
Elapsed ordering time = 1525s
Elapsed ordering time = 1530s
Elapsed ordering time = 1535s
Elapsed ordering time = 1540s
Elapsed ordering time = 1545s
Elapsed ordering time = 1550s
Elapsed ordering time = 1555s
Elapsed ordering time = 1560s
Elapsed ordering time = 1565s
Elapsed ordering time = 1570s
Elapsed ordering time = 1575s
Elapsed ordering time = 1580s
Elapsed ordering time = 1585s
Elapsed ordering time = 1590s
Elapsed ordering time = 1595s
Elapsed ordering time = 1600s
Elapsed ordering time = 1605s
Elapsed ordering time = 1610s
Elapsed ordering time = 1615s
Elapsed ordering time = 1620s
Elapsed ordering time = 1625s
Elapsed ordering time = 1630s
Elapsed ordering time = 1635s
Elapsed ordering time = 1640s
Elapsed ordering time = 1645s
Elapsed ordering time = 1650s
Elapsed ordering time = 1655s
Elapsed ordering time = 1660s
Elapsed ordering time = 1665s
Elapsed ordering time = 1670s
Elapsed ordering time = 1675s
Elapsed ordering time = 1680s
Elapsed ordering time = 1685s
Elapsed ordering time = 1690s
Elapsed ordering time = 1695s
Elapsed ordering time = 1700s
Elapsed ordering time = 1705s
Elapsed ordering time = 1710s
Elapsed ordering time = 1715s
Elapsed ordering time = 1720s
Elapsed ordering time = 1725s
Elapsed ordering time = 1730s
Elapsed ordering time = 1735s
Elapsed ordering time = 1740s
Elapsed ordering time = 1745s
Elapsed ordering time = 1750s
Elapsed ordering time = 1755s
Elapsed ordering time = 1760s
Elapsed ordering time = 1765s
Elapsed ordering time = 1770s
Elapsed ordering time = 1775s
Elapsed ordering time = 1780s
Elapsed ordering time = 1785s
Elapsed ordering time = 1790s
Elapsed ordering time = 1795s
Elapsed ordering time = 1800s
Elapsed ordering time = 1805s
Elapsed ordering time = 1810s
Elapsed ordering time = 1815s
Elapsed ordering time = 1820s
Elapsed ordering time = 1825s
Elapsed ordering time = 1830s
Elapsed ordering time = 1835s
Elapsed ordering time = 1840s
Elapsed ordering time = 1845s
Elapsed ordering time = 1850s
Elapsed ordering time = 1855s
Elapsed ordering time = 1860s
Elapsed ordering time = 1865s
Elapsed ordering time = 1870s
Elapsed ordering time = 1875s
Elapsed ordering time = 1880s
Elapsed ordering time = 1885s
Elapsed ordering time = 1890s
Elapsed ordering time = 1895s
Elapsed ordering time = 1900s
Elapsed ordering time = 1905s
Elapsed ordering time = 1910s
Elapsed ordering time = 1915s
Elapsed ordering time = 1920s
Elapsed ordering time = 1925s
Elapsed ordering time = 1930s
Elapsed ordering time = 1935s
Elapsed ordering time = 1940s
Elapsed ordering time = 1945s
Elapsed ordering time = 1950s
Elapsed ordering time = 1955s
Elapsed ordering time = 1960s
Elapsed ordering time = 1965s
Elapsed ordering time = 1970s
Elapsed ordering time = 1975s
Elapsed ordering time = 1980s
Elapsed ordering time = 1985s
Elapsed ordering time = 1990s
Elapsed ordering time = 1995s
Elapsed ordering time = 2000s
Elapsed ordering time = 2005s
Elapsed ordering time = 2010s
Elapsed ordering time = 2015s
Elapsed ordering time = 2020s
Elapsed ordering time = 2025s
Elapsed ordering time = 2030s
Elapsed ordering time = 2035s
Elapsed ordering time = 2040s
Elapsed ordering time = 2045s
Elapsed ordering time = 2050s
Elapsed ordering time = 2055s
Elapsed ordering time = 2060s
Elapsed ordering time = 2065s
Elapsed ordering time = 2070s
Elapsed ordering time = 2075s
Elapsed ordering time = 2080s
Elapsed ordering time = 2085s
Elapsed ordering time = 2090s
Elapsed ordering time = 2095s
Elapsed ordering time = 2100s
Elapsed ordering time = 2105s
Elapsed ordering time = 2110s
Elapsed ordering time = 2115s
Elapsed ordering time = 2120s
Elapsed ordering time = 2125s
Elapsed ordering time = 2130s
Elapsed ordering time = 2135s
Elapsed ordering time = 2140s
Elapsed ordering time = 2145s
Elapsed ordering time = 2150s
Elapsed ordering time = 2155s
Elapsed ordering time = 2160s
Elapsed ordering time = 2165s
Elapsed ordering time = 2170s
Elapsed ordering time = 2175s
Elapsed ordering time = 2180s
Elapsed ordering time = 2185s
Elapsed ordering time = 2190s
Elapsed ordering time = 2195s
Elapsed ordering time = 2200s
Elapsed ordering time = 2205s
Elapsed ordering time = 2210s
Elapsed ordering time = 2215s
Elapsed ordering time = 2220s
Elapsed ordering time = 2225s
Elapsed ordering time = 2230s
Elapsed ordering time = 2235s
Elapsed ordering time = 2240s
Elapsed ordering time = 2245s
Elapsed ordering time = 2250s
Elapsed ordering time = 2255s
Elapsed ordering time = 2260s
Elapsed ordering time = 2265s
Elapsed ordering time = 2270s
Elapsed ordering time = 2275s
Elapsed ordering time = 2280s
Elapsed ordering time = 2285s
Elapsed ordering time = 2290s
Elapsed ordering time = 2295s
Elapsed ordering time = 2300s
Elapsed ordering time = 2305s
Elapsed ordering time = 2310s
Elapsed ordering time = 2315s
Elapsed ordering time = 2320s
Elapsed ordering time = 2325s
Elapsed ordering time = 2330s
Elapsed ordering time = 2335s
Elapsed ordering time = 2340s
Elapsed ordering time = 2345s
Elapsed ordering time = 2350s
Elapsed ordering time = 2355s
Elapsed ordering time = 2360s
Elapsed ordering time = 2365s
Elapsed ordering time = 2370s
Elapsed ordering time = 2375s
Elapsed ordering time = 2380s
Elapsed ordering time = 2385s
Elapsed ordering time = 2390s
Elapsed ordering time = 2395s
Elapsed ordering time = 2400s
Elapsed ordering time = 2405s
Elapsed ordering time = 2410s
Elapsed ordering time = 2415s
Elapsed ordering time = 2420s
Elapsed ordering time = 2425s
Elapsed ordering time = 2430s
Elapsed ordering time = 2435s
Elapsed ordering time = 2440s
Elapsed ordering time = 2445s
Elapsed ordering time = 2450s
Elapsed ordering time = 2455s
Elapsed ordering time = 2460s
Elapsed ordering time = 2465s
Elapsed ordering time = 2470s
Elapsed ordering time = 2475s
Elapsed ordering time = 2480s
Elapsed ordering time = 2485s
Elapsed ordering time = 2490s
Elapsed ordering time = 2495s
Elapsed ordering time = 2500s
Elapsed ordering time = 2505s
Elapsed ordering time = 2510s
Elapsed ordering time = 2515s
Elapsed ordering time = 2520s
Elapsed ordering time = 2525s
Elapsed ordering time = 2530s
Elapsed ordering time = 2535s
Elapsed ordering time = 2540s
Elapsed ordering time = 2545s
Elapsed ordering time = 2550s
Elapsed ordering time = 2555s
Elapsed ordering time = 2560s
Elapsed ordering time = 2565s
Elapsed ordering time = 2570s
Elapsed ordering time = 2575s
Elapsed ordering time = 2580s
Elapsed ordering time = 2585s
Elapsed ordering time = 2590s
Elapsed ordering time = 2595s
Elapsed ordering time = 2600s
Elapsed ordering time = 2605s
Elapsed ordering time = 2610s
Elapsed ordering time = 2615s
Elapsed ordering time = 2620s
Elapsed ordering time = 2625s
Elapsed ordering time = 2630s
Elapsed ordering time = 2727s
Elapsed ordering time = 2787s
Elapsed ordering time = 2827s
Elapsed ordering time = 2863s
Elapsed ordering time = 2878s
Elapsed ordering time = 2881s
Elapsed ordering time = 2886s
Elapsed ordering time = 2890s
Elapsed ordering time = 2906s
Elapsed ordering time = 2911s
Elapsed ordering time = 2919s
Elapsed ordering time = 2925s
Elapsed ordering time = 2926s
Elapsed ordering time = 2930s
Elapsed ordering time = 2938s
Elapsed ordering time = 3010s
Elapsed ordering time = 3081s
Elapsed ordering time = 3141s
Elapsed ordering time = 3208s
Ordering time: 3208.35s

Barrier performed 0 iterations in 3870.32 seconds
Time limit reached



Root relaxation: time limit, 0 iterations, 3385.85 seconds

Explored 0 nodes (0 simplex iterations) in 3876.78 seconds
Thread count was 4 (of 4 available processors)

Solution count 0

Time limit reached
Best objective -, best bound 0.000000000000e+00, gap -
Gurobi 9.1.2: time limit without a feasible solution
No basis.
No primal or dual variables returned.
sum{(i,j) in Arcs, k in K: i != j} c[i,j]*x[i,j,k] + sum{(i,j) in Arcs, 
  k in K} cto[i,j]*x[i,j,k] = 0

sum{(i,j) in Arcs, k in K: i != j} c[i,j]*x[i,j,k] = 0

sum{(i,j) in Arcs, k in K: i != j} cto[i,j]*x[i,j,k] = 0

COST = 0

